* Signature: 0x9829beb0e193576d
NAME lp_typeD_014
OBJSENSE MAX
ROWS
 N  OBJ
 L  c0      
 G  c1      
 G  c2      
 L  c_key_upper
 G  c_key_lower
 G  _chain_constr_1
 G  _chain_constr_2
 G  _chain_constr_3
 G  _chain_constr_4
 G  _chain_cycle
COLUMNS
    x0        OBJ       8.2214931430305849e-01
    x0        c0        1.9783306427755747e+00
    x0        c1        1.8761687768997173e+00
    x0        c2        1.7595505249513796e+00
    x0        c_key_upper  1.5379455719911213e+00
    x0        c_key_lower  1.5379455719911213e+00
    x1        OBJ       1.3390738277490448e+00
    x1        c0        7.4865899499989719e-01
    x1        c1        1.2310705919078249e+00
    x1        c2        9.3255603838500833e-01
    x1        c_key_upper  1.4162964760014525e+00
    x1        c_key_lower  1.4162964760014525e+00
    x2        OBJ       5.3102219633704406e-01
    x2        c0        1.6712436128862189e+00
    x2        c1        1.6352047488978827e+00
    x2        c2        1.2337429397473068e+00
    x2        c_key_upper  1.4584580844177710e+00
    x2        c_key_lower  1.4584580844177710e+00
    x3        OBJ       9.6879651663121580e-01
    x3        c0        5.9416366063770965e-01
    x3        c1        1.5549179192960638e+00
    x3        c2        1.5749352851153686e+00
    x3        c_key_upper  1.66465831660924
    x3        c_key_lower  1.66465831660924
    x4        OBJ       1.0206569852549214e+00
    x4        c0        5.6906712447914831e-01
    x4        c1        1.1322989808778974e+00
    x4        c2        1.0616187215127260e+00
    x4        c_key_upper  1.5979806768435576e+00
    x4        c_key_lower  1.5979806768435576e+00
    x5        OBJ       1.17895846673914
    x5        c0        1.4896563711376904e+00
    x5        c1        1.8677519620800906e+00
    x5        c2        6.3181821234164359e-01
    x5        c_key_upper  1.5999607643658686e+00
    x5        c_key_lower  1.5999607643658686e+00
    x6        OBJ       8.1208700198330419e-01
    x6        c0        8.9156734449641728e-01
    x6        c1        9.1258813019589791e-01
    x6        c2        1.1413202393744806e+00
    x6        c_key_upper  1.6827682876920935e+00
    x6        c_key_lower  1.6827682876920935e+00
    x7        OBJ       1.0914438539137763e+00
    x7        c0        1.3993077335408355e+00
    x7        c1        0.735867788346896
    x7        c2        7.2371889414609869e-01
    x7        c_key_upper  1.4229097061289129e+00
    x7        c_key_lower  1.4229097061289129e+00
    x8        OBJ       1.2149621122725920e+00
    x8        c0        7.2806603385197843e-01
    x8        c1        1.7121802267811177e+00
    x8        c2        1.7096186037328984e+00
    x8        c_key_upper  1.1192769992501368e+00
    x8        c_key_lower  1.1192769992501368e+00
    _chain_var_0  _chain_constr_1  -1
    _chain_var_0  _chain_cycle  1
    _chain_var_1  _chain_constr_1  1
    _chain_var_1  _chain_constr_2  -1
    _chain_var_2  _chain_constr_2  1
    _chain_var_2  _chain_constr_3  -1
    _chain_var_3  _chain_constr_3  1
    _chain_var_3  _chain_constr_4  -1
    _chain_var_4  _chain_constr_4  1
    _chain_var_4  _chain_cycle  -1
RHS
    RHS1      c0        5.1198887179907196e+01
    RHS1      c1        2.1929976803948797e+01
    RHS1      c2        1.2921291112057130e+01
    RHS1      c_key_upper  6.7501274416500763e+01
    RHS1      c_key_lower  3.3750637208250382e+01
    RHS1      _chain_constr_1  10
    RHS1      _chain_constr_2  10
    RHS1      _chain_constr_3  10
    RHS1      _chain_constr_4  10
    RHS1      _chain_cycle  10
BOUNDS
 UP BND1      x0        10
 UP BND1      x1        10
 UP BND1      x2        10
 UP BND1      x3        10
 UP BND1      x4        10
 UP BND1      x5        10
 UP BND1      x6        10
 UP BND1      x7        10
 UP BND1      x8        10
 UP BND1      _chain_var_0  100
 UP BND1      _chain_var_1  100
 UP BND1      _chain_var_2  100
 UP BND1      _chain_var_3  100
 UP BND1      _chain_var_4  100
ENDATA
